Linux optc-01-13 4.15.0-58-generic #64-Ubuntu SMP Tue Aug 6 11:12:41 UTC 2019 x86_64 x86_64 x86_64 GNU/Linux

top - 21:46:28 up 1 day, 11:47,  0 users,  load average: 0,51, 0,87, 0,96
Tasks: 290 gesamt,   1 laufend, 149 schlafend,   0 gestoppt,   0 Zombie
%CPU(s):  7,1 be,  0,3 sy,  0,0 ni, 92,6 un,  0,0 wa,  0,0 hi,  0,0 si,  0,0 st
KiB Spch : 97514992 gesamt, 95363640 frei,   649492 belegt,  1501864 Puff/Cache
KiB Swap:  8388604 gesamt,  8388604 frei,        0 belegt. 96122800 verfü Spch 

  PID USER      PR  NI    VIRT    RES    SHR S  %CPU %MEM     ZEIT+ BEFEHL
    1 root      20   0  233852   9408   6700 S   0,0  0,0   0:11.50 systemd
    2 root      20   0       0      0      0 S   0,0  0,0   0:00.12 kthreadd
    3 root      20   0       0      0      0 I   0,0  0,0   0:01.82 kworker/0:0
    4 root       0 -20       0      0      0 I   0,0  0,0   0:00.00 kworker/0:+
    6 root      20   0       0      0      0 I   0,0  0,0   0:00.00 kworker/u3+
    7 root       0 -20       0      0      0 I   0,0  0,0   0:00.00 mm_percpu_+
    8 root      20   0       0      0      0 S   0,0  0,0   0:00.01 ksoftirqd/0
    9 root      20   0       0      0      0 I   0,0  0,0   0:08.25 rcu_sched

hard time limit: 04:10:00
hard mem limit: 55100

SLURM jobID: 2182594

@01 /nfs/optimi/kombadon/IP/coral/neos-1140050.mps.gz ===========
-----------------------------
Do 22. Aug 21:46:28 CEST 2019
-----------------------------
@03 1566503188
@05 7200
SCIP version 6.0.0 [precision: 8 byte] [memory: block] [mode: optimized] [LP solver: CPLEX 12.8.0.0] [GitHash: 41ab6e0014]
Copyright (C) 2002-2018 Konrad-Zuse-Zentrum fuer Informationstechnik Berlin (ZIB)

External codes: 
  Readline 7.0         GNU library for command line editing (gnu.org/s/readline)
  CPLEX 12.8.0.0       Linear Programming Solver developed by IBM (www.cplex.com)
  CppAD 20180000.0     Algorithmic Differentiation of C++ algorithms developed by B. Bell (www.coin-or.org/CppAD)
  ZLIB 1.2.11          General purpose compression library by J. Gailly and M. Adler (zlib.net)
  GMP 6.1.2            GNU Multiple Precision Arithmetic Library developed by T. Granlund (gmplib.org)
  bliss 0.73p          Computing Graph Automorphism Groups by T. Junttila and P. Kaski (http://www.tcs.hut.fi/Software/bliss/)

user parameter file <scip.set> not found - using default parameters

SCIP> 
SCIP> set load /home/optimi/bzfhende/opti/scip-opti/check/../settings/enable_treeeprofile.set
loaded parameter file </home/optimi/bzfhende/opti/scip-opti/check/../settings/enable_treeprofile.set>
SCIP> set limits time 7200
limits/time = 7200
SCIP> set limits nodes 2100000000
limits/nodes = 2100000000
SCIP> set limits memory 50000
limits/memory = 50000
SCIP> set lp advanced threads 1
lp/threads = 1
SCIP> set timing clocktype 1
timing/clocktype = 1
SCIP> set display freq 10000
display/freq = 10000
SCIP> set memory savefac 1.0
memory/savefac = 1
SCIP> set save /home/optimi/bzfhende/opti/scip-opti/check/treesize.estimation.jouurnal.3/bzfhende.MMMc.130_neos-1140050.scip.M640.enable_treeprofile.set
saved parameter file </home/optimi/bzfhende/opti/scip-opti/check/treesize.estimation.journal.3/bzfhende.MMMc.130_neos-1140050.scip.M640.enable_treeprofile.set>
SCIP> read /nfs/optimi/kombadon/IP/coral/neos-1140050.mps.gz

read problem </nfs/optimi/kombadon/IP/coral/neos-1140050.mps.gz>
============

original problem has 40320 variables (38640 bin, 0 int, 0 impl, 1680 cont) and 3795 constraints
SCIP> display parameters

number of parameters = 2448
non-default parameter settings:
display/freq = 10000
limits/time = 7200
limits/nodes = 2100000000
limits/memory = 50000
lp/threads = 1
memory/savefac = 1
presolving/maxrestarts = 0
estimates/profile/enabled = TRUE
estimates/profile/maxdepthfactor = 10
estimates/profile/freq = 0

SCIP> optimize

Activating tree profile data collection
presolving:
(round 1, fast)       0 del vars, 0 del conss, 1680 add conss, 0 chg bounds, 0 chg sides, 0 chg coeffs, 0 upgd conss, 0 impls, 1680 clqs
(round 2, fast)       0 del vars, 1680 del conss, 3360 add conss, 0 chg bounds, 0 chg sides, 0 chg coeffs, 0 upgd conss, 0 impls, 1680 clqs
(round 3, fast)       0 del vars, 3360 del conss, 3360 add conss, 0 chg bounds, 0 chg sides, 0 chg coeffs, 0 upgd conss, 0 impls, 1680 clqs
(round 4, exhaustive) 0 del vars, 3360 del conss, 3360 add conss, 0 chg bounds, 0 chg sides, 0 chg coeffs, 1680 upgd conss, 0 impls, 1680 clqs
(round 5, medium)     1680 del vars, 3360 del conss, 3360 add conss, 0 chg bounds, 1680 chg sides, 1680 chg coeffs, 1680 upgd conss, 0 impls, 1680 clqs
   (2.7s) probing: 1000/36960 (2.7%) - 0 fixings, 0 aggregations, 1910 implications, 0 bound changes
   (2.7s) probing: 1001/36960 (2.7%) - 0 fixings, 0 aggregations, 1912 implications, 0 bound changes
   (2.7s) probing aborted: 1000/1000 successive useless probings
presolving (6 rounds: 6 fast, 3 medium, 2 exhaustive):
 1680 deleted vars, 3360 deleted constraints, 3360 added constraints, 0 tightened bounds, 0 added holes, 1680 changed sides, 1680 changed coefficients
 1912 implications, 1963 cliques
presolved problem has 38640 variables (36960 bin, 0 int, 0 impl, 1680 cont) and 3795 constraints
   1680 constraints of type <setppc>
   2115 constraints of type <linear>
transformed objective value is always integral (scale: 0.01)
Presolving Time: 2.64

 time | node  | left  |LP iter|LP it/n| mem |mdpt |frac |vars |cons |cols |rows |cuts |confs|strbr|  dualbound   | primalbound  |  gap   
 49.3s|     1 |     0 | 29350 |     - | 448M|   0 | 301 |  38k|3796 |  38k|3795 |   0 |   0 |   0 | 5.071594e+06 |      --      |    Inf 
SCIP nodes: 1 Estimation: -1
  230s|     1 |     2 | 63725 |     - | 492M|   0 | 301 |  38k|3795 |  38k|3795 |   0 |   0 |  22 | 5.071596e+06 |      --      |    Inf 
   (229.7s) symmetry computation started: requiring (bin +, int -, cont -), (fixed: bin -, int +, cont -)
   (230.9s) no symmetry present
SCIP nodes: 2 Estimation: -1
SCIP nodes: 4 Estimation: -1
SCIP nodes: 8 Estimation: -1
SCIP nodes: 16 Estimation: -1
SCIP nodes: 32 Estimation: -1
SCIP nodes: 64 Estimation: -1
SCIP nodes: 128 Estimation: -1
SCIP nodes: 256 Estimation: 282.062
SCIP nodes: 512 Estimation: 612.43
SCIP nodes: 1024 Estimation: 831.452
SCIP nodes: 2048 Estimation: 857.766

SCIP Status        : solving was interrupted [time limit reached]
Solving Time (sec) : 7200.04
Solving Nodes      : 2061
Primal Bound       : +1.00000000000000e+20 (0 solutions)
Dual Bound         : +5.07167236017377e+06
Gap                : infinite

SCIP> display statistics

SCIP Status        : solving was interrupted [time limit reached]
Total Time         :    7200.42
  solving          :    7200.04
  presolving       :       2.64 (included in solving)
  reading          :       0.38
  copying          :       0.36 (4 #copies) (minimal 0.08, maximal 0.10, average 0.09)
Original Problem   :
  Problem name     : SHIM
  Variables        : 40320 (38640 binary, 0 integer, 0 implicit integer, 1680 continuous)
  Constraints      : 3795 initial, 3795 maximal
  Objective        : minimize, 36960 non-zeros (abs.min = 14.14, abs.max = 28800)
Presolved Problem  :
  Problem name     : t_SHIM
  Variables        : 38640 (36960 binary, 0 integer, 0 implicit integer, 1680 continuous)
  Constraints      : 3795 initial, 3796 maximal
  Objective        : minimize, 36960 non-zeros (abs.min = 1414, abs.max = 2.88e+06)
Presolvers         :   ExecTime  SetupTime  Calls  FixedVars   AggrVars   ChgTypes  ChgBounds   AddHoles    DelCons    AddCons   ChgSides   ChgCoefs
  boundshift       :       0.00       0.00      0          0          0          0          0          0          0          0          0          0
  convertinttobin  :       0.00       0.00      0          0          0          0          0          0          0          0          0          0
  domcol           :       0.10       0.00      1          0          0          0          0          0          0          0          0          0
  dualagg          :       0.00       0.00      0          0          0          0          0          0          0          0          0          0
  dualcomp         :       0.04       0.00      1          0          0          0          0          0          0          0          0          0
  dualinfer        :       0.00       0.00      0          0          0          0          0          0          0          0          0          0
  gateextraction   :       0.00       0.00      0          0          0          0          0          0          0          0          0          0
  implics          :       0.00       0.00      3          0          0          0          0          0          0          0          0          0
  inttobinary      :       0.00       0.00      0          0          0          0          0          0          0          0          0          0
  qpkktref         :       0.00       0.00      0          0          0          0          0          0          0          0          0          0
  redvub           :       0.00       0.00      0          0          0          0          0          0          0          0          0          0
  sparsify         :       0.12       0.00      1          0          0          0          0          0          0          0          0          0
  stuffing         :       0.00       0.00      0          0          0          0          0          0          0          0          0          0
  symbreak         :       0.00       0.00      0          0          0          0          0          0          0          0          0          0
  symmetry         :       0.00       0.00      0          0          0          0          0          0          0          0          0          0
  trivial          :       0.00       0.00      6          0          0          0          0          0          0          0          0          0
  tworowbnd        :       0.00       0.00      0          0          0          0          0          0          0          0          0          0
  dualfix          :       0.00       0.00      6          0          0          0          0          0          0          0          0          0
  genvbounds       :       0.00       0.00      0          0          0          0          0          0          0          0          0          0
  orbitalfixing    :       0.00       0.00      0          0          0          0          0          0          0          0          0          0
  probing          :       2.04       0.01      1          0          0          0          0          0          0          0          0          0
  pseudoobj        :       0.00       0.00      0          0          0          0          0          0          0          0          0          0
  vbounds          :       0.01       0.00      1          0          0          0          0          0          0          0          0          0
  setppc           :       0.04       0.00      5          0       1680          0          0          0          0          0       1680       1680
  linear           :       0.13       0.06      8          0          0          0          0          0       3360       3360          0          0
  logicor          :       0.00       0.00      0          0          0          0          0          0          0          0          0          0
  benders          :       0.00       0.00      0          0          0          0          0          0          0          0          0          0
  components       :       0.08       0.00      1          0          0          0          0          0          0          0          0          0
  root node        :          -          -      -          0          -          -          0          -          -          -          -          -
Constraints        :     Number  MaxNumber  #Separate #Propagate    #EnfoLP    #EnfoRelax  #EnfoPS    #Check   #ResProp    Cutoffs    DomReds       Cuts    Applied      Conss   Children
  benderslp        :          0          0          0          0       2093          0          0        101          0          0          0          0          0          0          0
  integral         :          0          0          0          0       2093          0          0        101          0          0         36          0          0          0       4120
  setppc           :       1680       1680          1     223022          0          0          0         96          0          0      41547          0          0          0          0
  linear           :       2115       2115          1     223029          0          0          0          4          0         43       2343          0          0          0          0
  logicor          :          0+         1          0          6          0          0          0          0          0          0          0          0          0          0          0
  benders          :          0          0          0          0          0          0          0          0          0          0          0          0          0          0          0
  countsols        :          0          0          0          0          0          0          0          0          0          0          0          0          0          0          0
  components       :          0          0          0          0          0          0          0          0          0          0          0          0          0          0          0
Constraint Timings :  TotalTime  SetupTime   Separate  Propagate     EnfoLP     EnfoPS     EnfoRelax   Check    ResProp    SB-Prop
  benderslp        :       0.00       0.00       0.00       0.00       0.00       0.00       0.00       0.00       0.00       0.00
  integral         :    2300.75       0.00       0.00       0.00    2300.73       0.00       0.00       0.02       0.00       0.00
  setppc           :       0.42       0.00       0.00       0.33       0.00       0.00       0.00       0.03       0.00       0.06
  linear           :      12.22       0.06       0.42      11.30       0.00       0.00       0.00       0.01       0.00       0.43
  logicor          :       0.00       0.00       0.00       0.00       0.00       0.00       0.00       0.00       0.00       0.00
  benders          :       0.00       0.00       0.00       0.00       0.00       0.00       0.00       0.00       0.00       0.00
  countsols        :       0.00       0.00       0.00       0.00       0.00       0.00       0.00       0.00       0.00       0.00
  components       :       0.05       0.00       0.00       0.05       0.00       0.00       0.00       0.00       0.00       0.00
Propagators        : #Propagate   #ResProp    Cutoffs    DomReds
  dualfix          :          1          0          0          0
  genvbounds       :          0          0          0          0
  nlobbt           :          0          0          0          0
  obbt             :          0          0          0          0
  orbitalfixing    :          1          0          0          0
  probing          :          0          0          0          0
  pseudoobj        :       6241          0          0          0
  redcost          :       4186          0          0          0
  rootredcost      :          1          0          0          0
  vbounds          :     222034          0          0          0
Propagator Timings :  TotalTime  SetupTime   Presolve  Propagate    ResProp    SB-Prop
  dualfix          :       0.00       0.00       0.00       0.00       0.00       0.00
  genvbounds       :       0.11       0.00       0.00       0.10       0.00       0.01
  nlobbt           :       0.00       0.00       0.00       0.00       0.00       0.00
  obbt             :       0.00       0.00       0.00       0.00       0.00       0.00
  orbitalfixing    :       1.26       0.00       0.00       1.26       0.00       0.00
  probing          :       2.05       0.01       2.04       0.00       0.00       0.00
  pseudoobj        :       0.24       0.00       0.00       0.23       0.00       0.01
  redcost          :       3.13       0.00       0.00       3.12       0.00       0.01
  rootredcost      :       0.09       0.00       0.00       0.09       0.00       0.00
  vbounds          :       0.14       0.00       0.01       0.13       0.00       0.00
Conflict Analysis  :       Time      Calls    Success    DomReds  Conflicts   Literals    Reconvs ReconvLits   Dualrays   Nonzeros   LP Iters   (pool size: [10000,10000])
  propagation      :       0.00          0          0          -          0        0.0          0        0.0          -          -          -
  infeasible LP    :       0.00          2          0          -          0        0.0          0        0.0          0        0.0          0
  bound exceed. LP :       0.03         16          0          -          0        0.0          0        0.0          0        0.0          0
  strong branching :       0.00          0          0          -          0        0.0          0        0.0          -          -          0
  pseudo solution  :       0.00          0          0          -          0        0.0          0        0.0          -          -          -
  applied globally :       0.00          -          -          0          0        0.0          -          -          0          -          -
  applied locally  :          -          -          -          0          0        0.0          -          -          0          -          -
Separators         :   ExecTime  SetupTime      Calls    Cutoffs    DomReds       Cuts    Applied      Conss
  cut pool         :       0.00                     0          -          -          0          -          -    (maximal pool size: 0)
  aggregation      :       5.97       0.00         74          0          0          0          0          0
  cgmip            :       0.00       0.00          0          0          0          0          0          0
  clique           :       0.01       0.00          1          0          0          0          0          0
  closecuts        :       0.00       0.00          0          0          0          0          0          0
  cmir             :       0.00       0.00          0          0          0          0          0          0
  convexproj       :       0.00       0.00          0          0          0          0          0          0
  disjunctive      :       0.00       0.00          0          0          0          0          0          0
  eccuts           :       0.00       0.00          0          0          0          0          0          0
  flowcover        :       0.00       0.00          0          0          0          0          0          0
  gauge            :       0.00       0.00          0          0          0          0          0          0
  gomory           :      32.27       0.00         74          0          0          0          0          0
  impliedbounds    :       0.12       0.00         74          0          0          0          0          0
  intobj           :       0.00       0.00          0          0          0          0          0          0
  mcf              :       0.00       0.00          1          0          0          0          0          0
  oddcycle         :       0.00       0.00          0          0          0          0          0          0
  rapidlearning    :       0.00       0.00          0          0          0          0          0          0
  strongcg         :       0.48       0.00          1          0          0          0          0          0
  zerohalf         :       1.61       0.00         74          0          0          0          0          0
Pricers            :   ExecTime  SetupTime      Calls       Vars
  problem variables:       0.00          -          0          0
Branching Rules    :   ExecTime  SetupTime   BranchLP  BranchExt   BranchPS    Cutoffs    DomReds       Cuts      Conss   Children
  allfullstrong    :       0.00       0.00          0          0          0          0          0          0          0          0
  cloud            :       0.00       0.00          0          0          0          0          0          0          0          0
  distribution     :       0.00       0.00          0          0          0          0          0          0          0          0
  fullstrong       :       0.00       0.00          0          0          0          0          0          0          0          0
  inference        :       0.00       0.00          0          0          0          0          0          0          0          0
  leastinf         :       0.00       0.00          0          0          0          0          0          0          0          0
  lookahead        :       0.00       0.00          0          0          0          0          0          0          0          0
  mostinf          :       0.00       0.00          0          0          0          0          0          0          0          0
  multaggr         :       0.00       0.00          0          0          0          0          0          0          0          0
  nodereopt        :       0.00       0.00          0          0          0          0          0          0          0          0
  pscost           :       0.00       0.00          0          0          0          0          0          0          0          0
  random           :       0.00       0.00          0          0          0          0          0          0          0          0
  relpscost        :    2300.72       0.00       2093          0          0          0         36          0          0       4120
Primal Heuristics  :   ExecTime  SetupTime      Calls      Found       Best
  LP solutions     :       0.00          -          -          0          0
  relax solutions  :       0.00          -          -          0          0
  pseudo solutions :       0.00          -          -          0          0
  strong branching :       0.03          -          -          0          0
  actconsdiving    :       0.00       0.00          0          0          0
  alns             :      28.96       0.00          3          0          0
  bound            :       0.00       0.00          0          0          0
  clique           :       0.60       0.00          1          0          0
  coefdiving       :     234.87       0.00         12          0          0
  completesol      :       0.00       0.00          0          0          0
  conflictdiving   :       0.00       0.00          0          0          0
  crossover        :       0.00       0.00          0          0          0
  dins             :       0.00       0.00          0          0          0
  distributiondivin:     285.57       0.00          8          0          0
  dualval          :       0.00       0.00          0          0          0
  farkasdiving     :      78.70       0.00          1          0          0
  feaspump         :     156.57       0.00          5          0          0
  fixandinfer      :       0.00       0.00          0          0          0
  fracdiving       :     218.78       0.00          9          0          0
  gins             :       0.00       0.00          0          0          0
  guideddiving     :       0.00       0.00          0          0          0
  indicator        :       0.00       0.00          0          0          0
  intdiving        :       0.00       0.00          0          0          0
  intshifting      :      13.09       0.00         18          0          0
  linesearchdiving :     166.57       0.00          8          0          0
  localbranching   :       0.00       0.00          0          0          0
  locks            :       1.51       0.00          1          0          0
  lpface           :       0.00       0.00          0          0          0
  mpec             :       0.00       0.00          0          0          0
  multistart       :       0.00       0.00          0          0          0
  mutation         :       0.00       0.00          0          0          0
  nlpdiving        :       0.00       0.00          0          0          0
  objpscostdiving  :     211.01       0.00          7          0          0
  octane           :       0.00       0.00          0          0          0
  ofins            :       0.00       0.00          0          0          0
  oneopt           :       0.00       0.00          0          0          0
  proximity        :       0.00       0.00          0          0          0
  pscostdiving     :     159.83       0.00         14          0          0
  randrounding     :       0.07       0.00         92          0          0
  rens             :      19.92       0.00          1          0          0
  reoptsols        :       0.00       0.00          0          0          0
  repair           :       0.00       0.00          0          0          0
  rins             :       0.00       0.00          0          0          0
  rootsoldiving    :     231.00       0.00          1          0          0
  rounding         :       0.09       0.00        593          0          0
  shiftandpropagate:       1.31       0.00          1          0          0
  shifting         :       9.47       0.00        158          0          0
  simplerounding   :       0.00       0.00          0          0          0
  subnlp           :       0.00       0.00          0          0          0
  trivial          :       0.06       0.00          2          0          0
  trivialnegation  :       0.00       0.00          0          0          0
  trysol           :       0.00       0.00          0          0          0
  twoopt           :       0.00       0.00          0          0          0
  undercover       :       0.00       0.00          0          0          0
  vbounds          :       0.86       0.00          1          0          0
  veclendiving     :     156.19       0.00          8          0          0
  zeroobj          :       0.00       0.00          0          0          0
  zirounding       :       0.19       0.00       1000          0          0
  other solutions  :          -          -          -          0          -
Diving Statistics  :      Calls      Nodes   LP Iters Backtracks  Conflicts   MinDepth   MaxDepth   AvgDepth  RoundSols  NLeafSols  MinSolDpt  MaxSolDpt  AvgSolDpt
  actconsdiving    :          0          -          -          -          -          -          -          -          -          -          -          -          -
  coefdiving       :         12       7625      80742          0          0        364       1064      678.3          0          -          -          -          -
  conflictdiving   :          0          -          -          -          -          -          -          -          -          -          -          -          -
  distributiondivin:          8       3207     110536          0          0        141        954      460.5          0          -          -          -          -
  farkasdiving     :          1        300      18385          0          0        301        301      301.0          0          -          -          -          -
  fracdiving       :          9       3001     106723          0          0        188        548      383.6          0          -          -          -          -
  guideddiving     :          0          -          -          -          -          -          -          -          -          -          -          -          -
  linesearchdiving :          8       1308     108528          0          0        159        341      216.5          0          -          -          -          -
  pscostdiving     :         14       6668      49821          0          0        315        994      511.4          0          -          -          -          -
  veclendiving     :          8       1329     101533          0          0        153        353      211.8          0          -          -          -          -
Neighborhoods      :      Calls  SetupTime  SolveTime SolveNodes       Sols       Best       Exp3  EpsGreedy        UCB TgtFixRate  Opt  Inf Node Stal  Sol  Usr Othr Actv
  rens             :          3       0.67      28.13        184          0          0    0.00000   -1.00000    0.47443      0.900    0    0    0    3    0    0    0    1
  rins             :          0       0.00       0.00          0          0          0    0.00000   -1.00000    0.06194      0.900    0    0    0    0    0    0    0    1
  mutation         :          0       0.00       0.00          0          0          0    0.00000   -1.00000    0.06194      0.900    0    0    0    0    0    0    0    1
  localbranching   :          0       0.00       0.00          0          0          0    0.00000   -1.00000    0.06194      0.900    0    0    0    0    0    0    0    1
  crossover        :          0       0.00       0.00          0          0          0    0.00000   -1.00000    0.06194      0.900    0    0    0    0    0    0    0    1
  proximity        :          0       0.00       0.00          0          0          0    0.00000   -1.00000    0.06194      0.900    0    0    0    0    0    0    0    1
  zeroobjective    :          0       0.00       0.00          0          0          0    0.00000   -1.00000    0.06194      0.900    0    0    0    0    0    0    0    1
  dins             :          0       0.00       0.00          0          0          0    0.00000   -1.00000    0.06194      0.900    0    0    0    0    0    0    0    1
LP                 :       Time      Calls Iterations  Iter/call   Iter/sec  Time-0-It Calls-0-It    ItLimit
  primal LP        :       0.00          0          0       0.00          -       0.00          0
  dual LP          :    2859.18       2095     921843     447.28     322.42       0.37         34
  lex dual LP      :       0.00          0          0       0.00          -
  barrier LP       :       0.00          0          0       0.00          -       0.00          0
  resolve instable :       0.00          0          0       0.00          -
  diving/probing LP:    1905.54       1359     757258     557.22     397.40
  strong branching :    2268.70       3366     572691     170.14     252.43          -          -        734
    (at root node) :          -         22       4850     220.45          -
  conflict analysis:       0.00          0          0       0.00          -
B&B Tree           :
  number of runs   :          1
  nodes            :       2061 (2060 internal, 1 leaves)
  feasible leaves  :          0
  infeas. leaves   :          0
  objective leaves :          0
  nodes (total)    :       2061 (2060 internal, 1 leaves)
  nodes left       :       2061
  max depth        :         89
  max depth (total):         89
  backtracks       :         85 (4.1%)
  early backtracks :          0 (0.0%)
  nodes exc. ref.  :          0 (0.0%)
  delayed cutoffs  :          0
  repropagations   :          0 (0 domain reductions, 0 cutoffs)
  avg switch length:       2.49
  switching time   :       0.20
Root Node          :
  First LP value   : +5.07159366170420e+06
  First LP Iters   :      29335 (698.95 Iter/sec)
  First LP Time    :      41.97
  Final Dual Bound : +5.07159609522152e+06
  Final Root Iters :      45021
  Root LP Estimate : +5.11501824338555e+06
Solution           :
  Solutions found  :          0 (0 improvements)
  Primal Bound     :          -
  Dual Bound       : +5.07167236017377e+06
  Gap              :   infinite
  Avg. Gap         :     100.00 % (720004.00 primal-dual integral)
  Tree Data        : 4121 nodes (2060 visited, 2060 inner, 0 leaves, 2061 open), progress: 0.0000
Tree Estimation    :       estim       value       trend  resolution      smooth
  wbe              :          -1           -           -           -           -
  tree profile     :         858           -           -           -           -
  gap              :          -1     0.00000 999999999999999967336168804116691273849533185806555472917961779471295845921727862608739868455469056.00000           1 999999999999999967336168804116691273849533185806555472917961779471295845921727862608739868455469056
  progress         :          -1     0.00000 999999999999999967336168804116691273849533185806555472917961779471295845921727862608739868455469056.00000           1 999999999999999967336168804116691273849533185806555472917961779471295845921727862608739868455469056
  leaf-frequency   :          -1    -0.50000 999999999999999967336168804116691273849533185806555472917961779471295845921727862608739868455469056.00000           1 999999999999999967336168804116691273849533185806555472917961779471295845921727862608739868455469056
  ssg              :          -1     1.00000 999999999999999967336168804116691273849533185806555472917961779471295845921727862608739868455469056.00000           1 999999999999999967336168804116691273849533185806555472917961779471295845921727862608739868455469056
  open-nodes       :          -1     0.00000 999999999999999967336168804116691273849533185806555472917961779471295845921727862608739868455469056.00000           1 999999999999999967336168804116691273849533185806555472917961779471295845921727862608739868455469056

@04 1566510400
-----------------------------
Do 22. Aug 23:46:40 CEST 2019
-----------------------------

=ready=
